45

 0   0   0   0   0   0   0   0   0   0   0   0   0   0   0   3   0   0   0   0   0   0  27  27  27  27  27  27  27  27  28   1  28  28  28  28  28  28  10   5  17   8   5   8   4  
 0   0   0   0   0   0   0   0   0   0   0   0   0   0   0   0   0   0   0   0   0   0  27  27  27  27  27  27  27  27  28  28  28  28  28  28  28  28  10   8   6  18   4   9   5  
 0   0   0   0   0   0   0   0   0   4   0   0   0   0   0   0   0   0   0   0   0   0   1  27  27  27  27  27  27  27  28  28  28  28  28  28  28  28  13  17  17  18  18   8  11  
 0   0   0   0   0   0   0   0   1   0   0   0   0   0   0   0   0   0   5   0   0   0  27  27  27  27  27  27  27  27  28  28  28  28  28  28  28  28  11  17   9   6  18   4   2  
 0   0   0   0   0   0   0   0   0   0   0   0   0   0   0   0   0   0   0   0   0   0  27  27  27  27  27  27  27  27  28  28  28  28  28  28  28  28  14   2   1   5  14   7   3  
 0   0   0   0   0   0   0   0   3   0   0   0   0   0   0   0   0   0   0   0   0   0  27  27  27  27  27  27  27  27  28  28  28  28  28  28  28  28  14   2  13   6  20  11   9  
 0   0   0   0   0   0   0   0   0   0   0   0   0   0   0   0   0   0   0   0   0   0  27  27  27  27  27  27  27  27  28  28  28  28  28  28  28  28   5  18  15  19  10  10  19  
 0   0   0   0   0   0   0   0   0   0   0   0   0   9   0   0   0   0   0   0   0   0  27  27  27  27  27  27  27  27  28  28  28  28  28  28  28  28   9  10  14  17  12   7   9  
 0   0   0   1   0   3   0   0   0   0   0   0   0   0   0   0   0   0   0   0   0   0  31  31  31  31  31  31  31  31   9  20  10   6  10   9  16   1  27  27  27  27  27  27  27  
 0   0   4   0   0   0   0   0   0   0   0   0   4   0   0   0   0   0   0   0   0   0  31  31  31  31  31  31  31  31  13  12   3  11   9   2   3   6  27  27  27  27  27  27  27  
 0   0   0   0   0   0   0   0   0   0   0   0   0   0   0   0   0   0   0   0   0   0  31  31  31   9  31  31  31  31  10  15   7   3   3   1  10   6  27  27  27  27  27  27  27  
 0   0   0   0   0   0   0   0   0   0   0   0   0   0   0   0   0   0   0   0   0   0  31  31  31  31  31  31  31  31   9   1   2  14  20  19   2   2  27  27  27  27  27  27  27  
 0   0   0   0   0   0   0   0   0   4   0   0   0   0   0   0   0   0   0   0   0   0  31  31  31  31  31  31  31  31   4  13  11   3   3  13  10   5  27  27  27  27  27  27   4  
 0   0   0   0   0   0   0   9   0   0   0   0   0   0   0   0   0   0   0   0   0   0  31  31  31  31  31  31  31  31   7   1  11  12  18   2  19   6  27  27  27  27  27  27  27  
 0   0   0   0   0   0   0   0   0   0   0   0   0   0   0   0   0   0   0   0   0   0  31  31  31  31  31  31  31  31  10   9   4   6  10   1  14  17  27  27  27  27  27  27  27  
 3   0   0   0   0   0   0   0   0   0   0   0   0   0   0   0   0   0   0   0   0   0  20  11  17   4   3  14  17   2  31  31  31  31  31  31  31  31  25  25  25  25  25  25  25  
 0   0   0   0   0   0   0   0   0   0   0   0   0   0   0   0   0   0   0   0   0   0   7  17   4  10   2  19   5   9  31  31  31  31  31  31  31  31  25  25  25  25  25  25  25  
 0   0   0   0   0   0   0   0   0   0   0   0   0   0   0   0   0   0   0   0   0   0   6   4   4  11   2   7  11  14  31  31  31  31  31  31  31  31  25  25  25  25  25  25  25  
 0   0   0   5   0   0   0   0   0   0   0   0   0   0   0   0   0   0   0   0   0   0   3   8  11   6  20  11   3  20  31  31  31  31  31  31  31  31  25  25  25  25  25  25  25  
 0   0   0   0   0   0   0   0   0   0   0   0   0   0   0   0   0   0   0   0   0   0  12  14   4  17  13   7   6   2  31  31  31  31  31  31  31  31  25  25  25  25  25  25  25  
 0   0   0   0   0   0   0   0   0   0   0   0   0   0   0   0   0   0   0   0   0   0   8  20  12  17  14   6   7  11  31  31  31  31  31  31  31  31  25  25  25  25  25  25  25  
 0   0   0   0   0   0   0   0   0   0   0   0   0   0   0   0   0   0   0   0   0   0   7   7   7  10  10  12  14  20  31   9  31  31  31  31  31  31  25  25  25  25  25  25  25  
27  27   1  27  27  27  27  27  31  31  31  31  31  31  31  13  20   5  10   8  19   4   0   0   0   0   0   0   0   0   0   0   0   0   0   0   0   0   0   0   0   0   0   0   0  
27  27  27  27  27  27  27  27  31  31  31  31  31  31  31  13  16  18   9   7   8   7   0   0   0   0   0   0   0   0   0   0   0   0   0   0   0   6   0   0   0   0   0   0   0  
27  27  27  27  27  27  27  27  31  31  31  31  31  31  31   2   2  13   4   1  19  13   0   0   0   0   0   0   0   0   0   6   0   0   0   0   0   0   0   0   0   0   0   0   0  
27  27  27  27  27  27  27  27  31  31   9  31  31  31  31   5   5   5   7  12  19  18   0   0   0   0   0   0   0   0   0   0   0   0   0   0   0   0   0   0   0   0   7   0   0  
27  27  27  27  27  27  27  27  31  31  31  31  31  31  31   5  14   2   7  11  16  17   0   0   0   0   0   0   0   0   0   0   0   0   0   0   0   0   0   0   0   0   0   7   0  
27  27  27  27  27  27  27  27  31  31  31  31  31  31  31  16  17  12   9  15  14   1   0   0   0   0   0   0   0   0   0   0   0   0   0   1   0   0   0   0   0   0   0   0   0  
27  27  27  27  27  27  27  27  31  31  31  31  31  31  31   5   5   2   4  19  12  16   0   0   0   0   0   0   0   0   0   0   1   0   0   0   0   0   0   0   7   0   0   0   0  
27  27  27  27  27  27  27  27  31  31  31  31  31  31  31   7   2  13  15   2  12   8   0   0   0   0   0   0   0   0   0   0   0   0   0   0   0   0   0   0   6   0   4   0   0  
28  28  28  28  28  28  28  28   4   9   1  15   7  15   4  31  31  31  31  31  31  31   0   0   0   0   0   0   0   0   0   0   0   0   0   0   0   0   0   0   0   0   0   0   0  
 1  28  28  28  28  28  28  28   7   1  18   5   6  15   9  31  31  31  31  31  31   9   0   0   6   0   0   0   0   0   0   0   4   0   0   0   0   0   0   0   0   0   0   0   0  
28  28  28  28  28  28  28  28   9  11  13  19  19  15   7  31  31  31  31  31  31  31   0   0   0   0   0   0   1   0   0   4   0   0   0   0   0   0   0   3   0   0   0   0   0  
28  28  28  28  28  28  28  28   4   9  17   7  13   7  18  31  31  31  31  31  31  31   0   0   0   0   0   0   0   0   0   0   0   0   0   0   0   0   0   0   0   0   0   0   0  
28  28  28  28  28  28  28  28  18  17  20   5   8  17   4  31  31  31  31  31  31  31   0   0   0   0   0   0   0   0   0   0   0   0   0   0   1   0   0   0   0   0   0   0   1  
28  28  28  28  28  28  28  28   6  18  12  17   1  17  14  31  31  31  31  31  31  31   0   0   0   0   0   1   0   0   0   0   0   0   0   0   0   0   9   0   0   0   0   0   0  
28  28  28  28  28  28  28  28  18   4  18   7  20  12   9  31  31  31  31  31  31  31   0   0   0   0   0   0   0   0   0   0   0   0   1   0   0   0   0   0   0   0   0   0   0  
28  28  28  28  28  28  28  28   5  12   1   2  10   1  13  31  31  31  31  31  31  31   0   6   0   0   0   0   0   0   0   0   0   0   0   0   0   0   0   7   0   0   0   0   0  
12  19  14  12  14   8   1   1  27  27  27  27  27  27  27  25  25  25  25  25  25  25   0   0   0   0   0   0   0   0   0   0   0   0   0   9   0   0   0   0   0   0   0   0   0  
19   4   1  16  11  12  16  16  27  27  27  27  27  27  27  25  25  25  25  25  25  25   0   0   0   0   0   0   0   0   0   0   3   0   0   0   0   7   0   0   2   0   4   0   0  
17   6  16  12  15  11  18  11  27  27  27  27  27  27  27  25  25  25  25  25  25  25   0   0   0   0   0   0   7   6   0   0   0   0   0   0   0   0   0   2   0   0   0   0   4  
 8  15   9   3   5   9  18   1  27  27  27  27  27  27  27  25  25  25  25  25  25  25   0   0   0   0   0   0   0   0   0   0   0   0   0   0   0   0   0   0   0   0   0   0   0  
 3  12  16  19  11  11  19   8  27  27  27  27  27  27  27  25  25  25  25  25  25  25   0   0   0   7   0   0   0   4   0   0   0   0   0   0   0   0   0   4   0   0   0   0   0  
13   2   9  15  11   1   2   2  27  27  27  27  27  27  27  25  25  25  25  25  25  25   0   0   0   0   7   0   0   0   0   0   0   0   0   0   0   0   0   0   0   0   0   0   2  
 6  17   4  12   7   9   6   5  27  27  27  27   4  27  27  25  25  25  25  25  25  25   0   0   0   0   0   0   0   0   0   0   0   0   1   0   0   0   0   0   4   0   0   2   0  

 0  13  13   4   3  20  10  10  27  27  27  27  27  27  27  30   2  30  30  30  30  30   0   0   0   0   0   0   0   0   0   0   0   0   0   0   0   0   0   0   0   0   0   0   0  
13   0  13   6   9   3   1   6  27  27  27  27  27  27  27  30  30  30  30  30  30  30   0   0   0   0   0   0   0   0   0   0   0   0   0   0   0   0   0   3   0   0   0   0   0  
19   9   0   6   7   7  13  13  27  27   9  27  27  27  27  30  30  30  30  30  30  30   0   0   0   0   0   0   8   0   0   0   0   0   0   0   0   0   0   0   0   0   0   0   0  
13   1   4   0  12  14   6   2  27  27   5  27  27  27  27  30  30  30  30  30  30  30   0   0   0   0   0   0   0   0   0   0   0   4   0   0   0   6   0   0   0   0   0   7   0  
15   5   7  14   0   8   9  11  27  27  27  27  27  27  27  30  30  30  30  30  30  30   0   0   0   0   0   0   0   0   0   0   0   0   0   0   0   0   0   0   0   0   0   0   0  
19  17   8  12   4   0   9  20  27  27  27  27  27  27  27  30  30  30  30  30  30  30   0   0   0   0   0   0   0   0   0   0   0   0   0   0   0   0   0   0   0   0   0   0   0  
15  17  13  19  19   9   0  15  27  27  27  27  27  27   8  30  30  30  30  30  30  30   0   0   0   0   0   0   0   0   0   0   0   0   0   0   0   0   0   0   0   0   0   0   0  
 6   7  11  12   4  13  10   0  27  27  27  27  27  27  27  30  30   1  30  30  30  30   0   0   0   0   3   0   0   0   0   0   0   3   0   6   0   0   0   0   0   0   0   0   0  
27  27  27  27  27  27  27  27   0   9  11   4   4   5   9  28  28  28  28  28  28  28   0   0   0   0   0   0   0   0   0   0   0   0   0   0   0   0   0   0   0   0   0   0   0  
27  27  27  27  27  27  27  27   6   0   9   2   7  11   2  28   1  28  28  28  28  28   0   0   0   0   0   0   0   0   0   0   0   0   0   0   0   0   0   0   0   0   0   0   0  
27  27   9   5  27  27  27  27   4   8   0  16  15  11  20  28  28  28  28  28  28  28   0   0   0   0   0   0   0   0   0   0   0   0   0   0   0   0   0   0   0   0   0   0   0  
27  27  27  27  27  27  27  27  16   6   7   0   8  15  19  28  28  28  28  28  28  28   0   0   0   0   0   0   0   0   0   0   0   0   0   0   0   0   0   0   0   0   0   0   0  
27  27  27  27  27  27  27  27  11  17   3   5   0  12   5  28  28  28  28  28  28  28   0   0   0   0   0   0   0   0   0   0   0   0   0   0   0   0   0   0   0   0   0   0   0  
27  27  27  27  27  27  27  27   4  15   6  11   5   0  13  28  28  28  28  28  28  28   0   0   0   0   7   0   0   0   0   0   0   0   0   0   0   0   0   0   0   0   4   0   0  
27  27  27  27  27  27   8  27  18   4   2  13  19  11   0  28  28  28  28  28  28  28   0   0   0   0   0   0   0   0   0   0   0   0   0   0   0   0   0   0   0   0   0   0   0  
30  30  30  30  30  30  30  30  28  28  28  28  28  28  28   0  16  13  15  11  15   7   0   0   0   0   0   0   0   0   0   0   0   0   0   0   0   0   0   0   0   0   0   4   0  
 2  30  30  30  30  30  30  30  28   1  28  28  28  28  28  10   0  16  19  11  12   3   0   0   0   0   0   0   0   0   0   0   0   0   0   0   0   0   0   0   0   9   0   0   0  
30  30  30  30  30  30  30   1  28  28  28  28  28  28  28  11   2   0   1   8   1   3   0   0   0   0   0   0   0   0   0   0   0   0   0   0   0   0   0   0   0   0   0   0   0  
30  30  30  30  30  30  30  30  28  28  28  28  28  28  28  14   1   5   0  16  19  10   0   0   0   0   0   0   0   0   0   0   0   0   0   0   0   0   0   0   0   0   0   0   0  
30  30  30  30  30  30  30  30  28  28  28  28  28  28  28   7  15   3  19   0  16  12   0   0   0   0   0   0   0   0   0   0   0   0   0   0   0   0   0   0   0   0   0   0   0  
30  30  30  30  30  30  30  30  28  28  28  28  28  28  28  16  10  15  15   2   0  19   0   0   0   0   0   0   0   0   0   0   0   0   0   0   0   0   0   0   0   0   0   0   0  
30  30  30  30  30  30  30  30  28  28  28  28  28  28  28  19  16   2  10  13  16   0   0   0   7   0   0   0   0   0   0   0   0   0   0   0   0   0   0   0   4   0   0   0   0  
 0   0   0   0   0   0   0   0   0   0   0   0   0   0   0   0   0   0   0   0   0   0   8  18   6  19  12   8  16  12  27  27  27  27  27  27  27  27   5  25  25  25  25  25  25  
 0   0   0   0   0   0   0   0   0   0   0   0   0   0   0   0   0   0   0   0   0   0  15  14   5   8   1  14  13  14  27  27  27  27  27  27  27  27  25  25  25  25  25  25  25  
 0   0   0   0   0   0   0   0   0   0   0   0   0   0   0   0   0   0   0   0   0   7   1   2   5  16  19  12   9   6  27   3  27  27  27   2  27  27  25  25  25  25  25  25  25  
 0   0   0   0   0   0   0   0   0   0   0   0   0   0   0   0   0   0   0   0   0   0   9  10   3  18   4   9   9  14  27  27  27  27  27  27  27  27  25  25  25  25   6  25  25  
 0   0   0   0   0   0   0   3   0   0   0   0   0   7   0   0   0   0   0   0   0   0  14  20   1  17  10  12   8  16  27  27  27  27  27  27  27  27  25  25  25  25  25  25  25  
 0   0   0   0   0   0   0   0   0   0   0   0   0   0   0   0   0   0   0   0   0   0   6   3  11   3  17  19  19  12  27  27  27  27  27  27  27  27  25  25  25  25  25  25  25  
 0   0   8   0   0   0   0   0   0   0   0   0   0   0   0   0   0   0   0   0   0   0  17  18   5   4  12  16  19   4  27  27  27  27  27  27  27  27  25  25  25  25  25  25  25  
 0   0   0   0   0   0   0   0   0   0   0   0   0   0   0   0   0   0   0   0   0   0  16  17   4  13  11  19  10   7  27  27  27  27  27   2  27  27  25  25  25  25  25  25  25  
 0   0   0   0   0   0   0   0   0   0   0   0   0   0   0   0   0   0   0   0   0   0  27  27  27  27  27  27  27  27  18   7   6  15  12   8  20   6  26  26  26  26  26  26  26  
 0   0   0   0   0   0   0   0   0   0   0   0   0   0   0   0   0   0   0   0   0   0  27  27   3  27  27  27  27  27   4   9   3  20   9   3  19  18  26  26  26  26  26  26  26  
 0   0   0   0   0   0   0   0   0   0   0   0   0   0   0   0   0   0   0   0   0   0  27  27  27  27  27  27  27  27   4  14  16   6   8   7  18  18  26  26  26  26  26  26  26  
 0   0   0   4   0   0   0   3   0   0   0   0   0   0   0   0   0   0   0   0   0   0  27  27  27  27  27  27  27  27  10  17  20  14  16   8   1  13  26  26  26   1  26  26  26  
 0   0   0   0   0   0   0   0   0   0   0   0   0   0   0   0   0   0   0   0   0   0  27  27  27  27  27  27  27  27   5  17   6   4  18   5  16  10  26  26  26   5  26  26  26  
 0   0   0   0   0   0   0   6   0   0   0   0   0   0   0   0   0   0   0   0   0   0  27  27   2  27  27  27  27   2  17   2   9   4   3   6  15   6  26  26  26  26  26  26  26  
 0   0   0   0   0   0   0   0   0   0   0   0   0   0   0   0   0   0   0   0   0   0  27  27  27  27  27  27  27  27  12   2   5  20  20  14  17   5  26  26  26  26  26  26  26  
 0   0   0   6   0   0   0   0   0   0   0   0   0   0   0   0   0   0   0   0   0   0  27  27  27  27  27  27  27  27   9  18   4   8  16  12   4   6  26  26  26  26   3  26  26  
 0   0   0   0   0   0   0   0   0   0   0   0   0   0   0   0   0   0   0   0   0   0   5  25  25  25  25  25  25  25  26  26  26  26  26  26  26  26   3  18   2   1   6  14  15  
 0   3   0   0   0   0   0   0   0   0   0   0   0   0   0   0   0   0   0   0   0   0  25  25  25  25  25  25  25  25  26  26  26  26  26  26  26  26   9   3   3  19   6  11  10  
 0   0   0   0   0   0   0   0   0   0   0   0   0   0   0   0   0   0   0   0   0   4  25  25  25  25  25  25  25  25  26  26  26  26  26  26  26  26   6   7  16  10  20   9  17  
 0   0   0   0   0   0   0   0   0   0   0   0   0   0   0   0   9   0   0   0   0   0  25  25  25  25  25  25  25  25  26  26  26   1   5  26  26  26  12  10   8   4  15  13   2  
 0   0   0   0   0   0   0   0   0   0   0   0   0   4   0   0   0   0   0   0   0   0  25  25  25   6  25  25  25  25  26  26  26  26  26  26  26   3  17  14   8  10   7  20  11  
 0   0   0   7   0   0   0   0   0   0   0   0   0   0   0   4   0   0   0   0   0   0  25  25  25  25  25  25  25  25  26  26  26  26  26  26  26  26   2   9   9  20   6  16   5  
 0   0   0   0   0   0   0   0   0   0   0   0   0   0   0   0   0   0   0   0   0   0  25  25  25  25  25  25  25  25  26  26  26  26  26  26  26  26   1  20  15  12  12  11   7  
